Minimize
 obj: - 5 y(1) - 8 y(4) + 9 y(9) - 102 x(0) + 3 y(3) - 6 y(7) + 91 x(1)
      + 7 y(0) + 8 y(5) + y(8) + 100 x(2) - 6 y(6) - 120 x(3) + 131 x(4)
      - 179 x(5) - 82 x(6) + 176 x(7) + 22 x(8) - 31 x(9) + 7 y(2) 
Subject To
 c1:  3 y(1) + 10 y(4) + y(9) + 15 x(0) <= 93
 c2:  9 y(3) + 9 y(7) + 3 x(1) <= 66
 c3:  5 y(1) + 11 y(7) + 16 y(0) + 18 y(5) + 20 y(8) + 9 x(2) <= 71
 c4:  10 y(9) + 6 y(3) + 20 y(0) + 18 y(5) + 10 y(6) + 12 x(3) <= 58
 c5:  12 y(4) + 20 y(9) + 14 y(0) + 10 y(5) + 18 y(8) + 19 y(6) + 20 x(4) <= 64
 c6:  2 y(1) + 19 y(4) + 14 y(9) + 2 y(7) + 13 y(6) + 9 x(5) <= 80
 c7:  - y(4) + 8 y(3) + 14 y(8) + 12 x(6) <= 92
 c8:  15 y(1) + 4 y(3) + 2 y(8) + 18 x(7) <= 94
 c9:  - y(7) + 16 y(0) + 19 y(8) + 14 x(8) <= 53
 c10: 8 y(1) + 5 y(4) + 5 y(3) + y(0) + 16 y(5) + 13 x(9) <= 65
 c11: 6 y(1) + 13 y(3) + 15 y(7) + 2 y(8) <= 73
 c12: 8 y(4) + 13 y(9) + 13 y(3) + 2 y(7) + 11 y(8) <= 85
 c13: 17 y(2) <= 91
 c14: 13 y(9) + 14 y(3) - y(2) <= 71
 c15: 17 y(1) + 14 y(4) + 12 y(0) + 10 y(5) <= 73
 c16: 20 y(1) + 13 y(9) + 12 y(7) + 9 y(0) - y(5) + 8 y(8) + 7 y(6) + 16 y(2)
      <= 73
 c17: 6 y(4) + 14 y(7) + 6 y(0) + 11 y(5) <= 57
 c18: 12 y(1) + 18 y(0) + 2 y(8) + 19 y(6) + 8 y(2) <= 68
 c19: - y(1) + 12 y(4) + 15 y(6) <= 51
 c20: x(0) + x(1) + x(2) + x(3) + x(4) + x(5) + x(6) + x(7) + x(8) + x(9) <= 3
 c21: - 8 y(1) + 3 y(4) + 9 y(9) - 62 x(0) - 8 y(3) - 6 y(7) + 142 x(1)
      - 9 y(0) + 2 y(5) - 3 y(8) - 169 x(2) - 4 y(6) - 171 x(3) - 186 x(4)
      + 64 x(5) - 43 x(6) - 199 x(7) + 135 x(8) + 64 x(9) + y(2) = 0
Bounds
 0 <= x(0) <= 1
 0 <= x(1) <= 1
 0 <= x(2) <= 1
 0 <= x(3) <= 1
 0 <= x(4) <= 1
 0 <= x(5) <= 1
 0 <= x(6) <= 1
 0 <= x(7) <= 1
 0 <= x(8) <= 1
 0 <= x(9) <= 1
Binaries
 x(0)  x(1)  x(2)  x(3)  x(4)  x(5)  x(6)  x(7)  x(8)  x(9) 
End
